33D32945 STP File, STP Format Version 1.0

SECTION Comment
Name    "Series C" 
Creator "A. M. Costa" 
Format  "Z.H. Fu and J. K. Hao"
Remark  "Sparse graph with random weights"
#TotalEdgeCost 13676
#BudgetFraction 20
END 

SECTION Graph 
Nodes 500 
Edges 2500 
Root 1
Budget 683
HopLimit 15
E 1 31 2 
E 1 98 3 
E 1 107 6 
E 1 252 3 
E 1 299 2 
E 1 312 8 
E 1 467 8 
E 1 469 5 
E 1 490 1 
E 2 70 4 
E 2 75 8 
E 2 104 4 
E 2 115 9 
E 2 199 6 
E 2 235 10 
E 2 325 4 
E 2 390 9 
E 3 71 7 
E 3 75 9 
E 3 188 10 
E 3 200 4 
E 3 312 8 
E 3 364 3 
E 3 367 7 
E 3 380 8 
E 3 439 5 
E 3 499 4 
E 4 10 2 
E 4 52 7 
E 4 97 7 
E 4 100 10 
E 4 135 5 
E 4 160 9 
E 4 163 10 
E 4 208 8 
E 4 268 6 
E 4 400 7 
E 4 492 4 
E 5 20 8 
E 5 73 1 
E 5 132 1 
E 5 204 4 
E 5 398 4 
E 5 469 6 
E 5 489 2 
E 6 29 10 
E 6 91 5 
E 6 134 8 
E 6 388 4 
E 6 412 4 
E 6 440 5 
E 6 459 7 
E 6 480 9 
E 6 495 1 
E 6 500 9 
E 7 48 6 
E 7 82 10 
E 7 94 7 
E 7 209 3 
E 7 252 2 
E 7 319 3 
E 7 370 3 
E 8 23 4 
E 8 63 6 
E 8 83 8 
E 8 113 2 
E 8 135 7 
E 8 195 1 
E 8 204 5 
E 8 208 3 
E 8 265 1 
E 8 266 8 
E 8 276 2 
E 8 389 10 
E 8 479 3 
E 8 491 5 
E 9 54 8 
E 9 59 4 
E 9 158 9 
E 9 171 10 
E 9 186 3 
E 9 199 2 
E 9 266 7 
E 9 417 2 
E 9 420 4 
E 9 424 9 
E 9 439 2 
E 10 98 9 
E 10 109 10 
E 10 150 3 
E 10 197 5 
E 10 214 6 
E 10 276 7 
E 10 285 6 
E 10 338 9 
E 10 387 3 
E 10 393 1 
E 11 66 3 
E 11 104 7 
E 11 255 3 
E 11 289 9 
E 11 293 5 
E 11 304 6 
E 11 340 2 
E 11 355 5 
E 11 362 4 
E 11 363 9 
E 11 364 5 
E 11 377 4 
E 11 409 6 
E 11 439 1 
E 11 468 2 
E 12 90 1 
E 12 167 1 
E 12 201 4 
E 12 332 1 
E 12 369 9 
E 12 443 8 
E 12 477 10 
E 12 498 9 
E 13 74 4 
E 13 154 3 
E 13 166 10 
E 13 197 10 
E 13 224 7 
E 13 310 4 
E 13 318 1 
E 13 323 2 
E 13 333 9 
E 13 405 9 
E 13 477 1 
E 13 478 8 
E 13 497 6 
E 14 139 4 
E 14 155 9 
E 14 175 6 
E 14 224 9 
E 14 301 2 
E 14 359 1 
E 14 394 7 
E 14 475 4 
E 14 485 6 
E 15 74 7 
E 15 110 3 
E 15 157 1 
E 15 272 2 
E 15 345 5 
E 15 367 9 
E 15 407 8 
E 15 428 4 
E 15 434 4 
E 15 466 8 
E 16 58 5 
E 16 101 10 
E 16 226 7 
E 16 229 4 
E 16 326 10 
E 16 335 7 
E 16 363 1 
E 16 394 1 
E 16 467 8 
E 16 479 8 
E 17 36 5 
E 17 61 4 
E 17 92 6 
E 17 141 2 
E 17 236 6 
E 17 347 10 
E 17 395 9 
E 17 426 10 
E 18 31 3 
E 18 45 10 
E 18 47 7 
E 18 123 10 
E 18 138 5 
E 18 150 5 
E 18 151 1 
E 18 186 6 
E 18 189 10 
E 18 213 3 
E 18 222 6 
E 18 453 1 
E 18 464 2 
E 19 49 2 
E 19 60 7 
E 19 70 4 
E 19 79 3 
E 19 162 1 
E 19 165 8 
E 19 177 3 
E 19 238 3 
E 19 253 6 
E 19 279 1 
E 19 363 5 
E 20 30 9 
E 20 57 10 
E 20 60 7 
E 20 243 2 
E 20 268 10 
E 20 301 6 
E 20 431 7 
E 20 485 8 
E 21 256 6 
E 21 257 2 
E 21 278 7 
E 21 300 7 
E 21 438 4 
E 21 443 5 
E 22 122 1 
E 22 164 8 
E 22 180 8 
E 22 260 3 
E 22 304 5 
E 22 380 2 
E 22 384 9 
E 22 423 8 
E 22 488 4 
E 23 260 5 
E 23 294 10 
E 23 297 10 
E 23 365 6 
E 23 391 4 
E 23 412 1 
E 23 417 10 
E 23 429 4 
E 23 431 8 
E 24 42 1 
E 24 67 8 
E 24 176 9 
E 24 237 8 
E 24 251 9 
E 24 252 2 
E 24 332 4 
E 24 368 8 
E 24 378 8 
E 24 448 6 
E 25 62 4 
E 25 72 2 
E 25 110 3 
E 25 148 7 
E 25 291 1 
E 25 301 8 
E 25 310 10 
E 25 386 5 
E 25 465 1 
E 25 489 4 
E 25 497 7 
E 26 28 9 
E 26 101 1 
E 26 105 10 
E 26 119 3 
E 26 142 8 
E 26 323 9 
E 26 338 1 
E 26 420 3 
E 26 476 2 
E 27 35 8 
E 27 163 3 
E 27 290 4 
E 27 316 7 
E 27 336 6 
E 27 360 9 
E 27 374 9 
E 27 378 5 
E 27 424 6 
E 27 439 3 
E 27 472 4 
E 27 481 10 
E 28 145 10 
E 28 163 7 
E 28 210 9 
E 28 242 7 
E 28 392 6 
E 28 490 2 
E 29 51 8 
E 29 212 4 
E 29 376 9 
E 29 391 9 
E 30 104 6 
E 30 181 6 
E 30 189 5 
E 30 241 8 
E 30 244 3 
E 30 256 4 
E 30 271 9 
E 30 290 9 
E 30 301 10 
E 30 349 3 
E 30 357 6 
E 30 425 10 
E 30 452 4 
E 31 68 7 
E 31 105 3 
E 31 131 2 
E 31 171 6 
E 31 184 2 
E 31 215 5 
E 31 299 4 
E 31 388 2 
E 31 389 6 
E 31 403 1 
E 32 40 2 
E 32 112 3 
E 32 115 4 
E 32 147 5 
E 32 204 10 
E 32 209 6 
E 32 228 2 
E 32 242 4 
E 32 258 4 
E 32 261 1 
E 32 318 5 
E 32 448 1 
E 32 453 2 
E 33 69 2 
E 33 75 2 
E 33 81 1 
E 33 258 10 
E 33 295 7 
E 33 297 7 
E 33 307 10 
E 33 344 4 
E 33 394 3 
E 33 411 1 
E 34 100 10 
E 34 102 9 
E 34 119 10 
E 34 128 6 
E 34 129 1 
E 34 181 6 
E 34 209 2 
E 34 221 1 
E 34 229 9 
E 34 288 4 
E 34 302 6 
E 34 321 6 
E 34 327 10 
E 34 341 4 
E 34 393 10 
E 34 452 4 
E 34 462 9 
E 35 37 10 
E 35 63 5 
E 35 93 7 
E 35 120 10 
E 35 126 2 
E 35 168 6 
E 35 175 5 
E 35 257 10 
E 35 310 7 
E 35 337 8 
E 35 345 8 
E 35 410 4 
E 35 464 7 
E 36 83 7 
E 36 100 2 
E 36 246 8 
E 36 293 9 
E 36 366 5 
E 37 55 1 
E 37 88 6 
E 37 177 10 
E 37 290 1 
E 37 306 4 
E 37 313 3 
E 37 353 7 
E 37 367 4 
E 37 463 10 
E 38 110 6 
E 38 160 10 
E 38 204 6 
E 38 232 4 
E 38 253 9 
E 38 331 6 
E 38 346 9 
E 38 367 8 
E 38 380 7 
E 38 409 9 
E 38 421 1 
E 38 458 1 
E 39 41 2 
E 39 102 9 
E 39 205 6 
E 39 268 10 
E 39 299 9 
E 39 323 2 
E 39 357 2 
E 39 395 5 
E 39 427 9 
E 39 470 6 
E 40 42 2 
E 40 54 4 
E 40 114 3 
E 40 131 9 
E 40 132 10 
E 40 200 9 
E 40 282 4 
E 40 484 5 
E 41 143 5 
E 41 163 5 
E 41 188 4 
E 41 230 7 
E 41 235 9 
E 41 254 6 
E 41 262 8 
E 41 419 1 
E 41 423 2 
E 41 482 10 
E 42 262 7 
E 42 283 3 
E 42 313 5 
E 43 111 8 
E 43 174 8 
E 43 192 8 
E 43 206 6 
E 43 252 1 
E 43 306 8 
E 43 340 10 
E 43 409 3 
E 43 453 10 
E 44 86 5 
E 44 94 1 
E 44 198 5 
E 44 249 8 
E 44 324 1 
E 44 348 8 
E 44 361 9 
E 44 427 6 
E 44 439 8 
E 44 460 1 
E 45 59 9 
E 45 176 10 
E 45 227 1 
E 45 259 9 
E 45 298 1 
E 45 331 2 
E 45 337 9 
E 45 376 6 
E 45 458 8 
E 45 495 9 
E 46 147 4 
E 46 322 7 
E 46 324 5 
E 46 333 9 
E 46 417 9 
E 47 50 7 
E 47 54 4 
E 47 91 4 
E 47 121 4 
E 47 122 3 
E 47 438 2 
E 47 440 3 
E 47 442 6 
E 47 473 4 
E 48 61 3 
E 48 63 5 
E 48 97 9 
E 48 199 9 
E 48 220 7 
E 48 257 5 
E 48 264 3 
E 48 299 6 
E 49 112 1 
E 49 221 9 
E 49 297 9 
E 49 303 5 
E 49 405 10 
E 50 55 10 
E 50 115 9 
E 50 126 5 
E 50 154 4 
E 50 204 4 
E 50 263 1 
E 50 280 3 
E 50 308 3 
E 50 328 6 
E 50 351 5 
E 50 431 1 
E 50 454 9 
E 50 482 1 
E 50 490 1 
E 51 54 4 
E 51 96 9 
E 51 154 8 
E 51 202 5 
E 51 219 1 
E 51 235 10 
E 51 247 6 
E 51 312 3 
E 51 321 4 
E 51 393 8 
E 51 406 9 
E 51 459 2 
E 52 70 10 
E 52 104 3 
E 52 134 2 
E 52 151 6 
E 52 153 8 
E 52 259 7 
E 52 341 10 
E 53 140 4 
E 53 183 5 
E 53 252 4 
E 53 290 2 
E 53 335 7 
E 53 444 8 
E 53 450 5 
E 53 469 1 
E 53 491 9 
E 53 493 10 
E 54 56 8 
E 54 61 1 
E 54 111 6 
E 54 218 7 
E 54 301 8 
E 54 399 4 
E 54 416 10 
E 54 457 8 
E 55 83 10 
E 55 156 3 
E 55 188 10 
E 55 240 3 
E 55 271 10 
E 55 328 5 
E 55 405 1 
E 55 418 10 
E 55 427 3 
E 55 462 5 
E 55 490 5 
E 56 107 4 
E 56 184 4 
E 56 244 10 
E 56 245 5 
E 56 254 1 
E 56 259 2 
E 56 350 8 
E 56 366 7 
E 56 400 8 
E 56 424 3 
E 56 435 3 
E 56 439 2 
E 57 245 7 
E 57 287 4 
E 57 310 7 
E 57 356 5 
E 57 374 4 
E 57 396 9 
E 58 75 1 
E 58 108 8 
E 58 123 1 
E 58 126 6 
E 58 220 5 
E 58 302 9 
E 58 365 2 
E 58 418 10 
E 58 431 2 
E 58 482 3 
E 59 101 6 
E 59 113 2 
E 59 147 3 
E 59 154 10 
E 59 222 8 
E 59 236 1 
E 59 251 8 
E 59 326 2 
E 59 347 2 
E 59 356 6 
E 59 404 9 
E 59 414 1 
E 59 490 1 
E 60 90 9 
E 60 143 2 
E 60 266 3 
E 60 306 5 
E 60 424 4 
E 60 444 8 
E 60 473 6 
E 61 66 1 
E 61 118 6 
E 61 137 6 
E 61 215 10 
E 61 270 7 
E 61 276 4 
E 61 279 5 
E 61 368 9 
E 61 456 3 
E 61 458 9 
E 61 476 2 
E 62 112 9 
E 62 124 10 
E 62 323 8 
E 62 335 2 
E 62 349 8 
E 62 410 1 
E 62 457 10 
E 62 484 1 
E 63 70 8 
E 63 84 7 
E 63 125 7 
E 63 304 4 
E 63 394 7 
E 63 423 4 
E 63 430 10 
E 64 90 9 
E 64 217 6 
E 64 242 9 
E 64 262 6 
E 64 372 3 
E 64 400 9 
E 64 423 10 
E 65 116 2 
E 65 136 4 
E 65 185 9 
E 65 233 6 
E 65 246 8 
E 65 285 10 
E 65 298 9 
E 65 309 5 
E 65 412 10 
E 65 426 8 
E 65 439 5 
E 65 454 1 
E 65 458 4 
E 65 459 7 
E 66 71 6 
E 66 197 4 
E 66 209 6 
E 66 250 7 
E 66 263 9 
E 66 348 5 
E 66 363 5 
E 66 372 8 
E 66 417 1 
E 66 475 6 
E 67 121 4 
E 67 123 9 
E 67 249 5 
E 67 255 4 
E 67 358 8 
E 67 362 9 
E 67 380 2 
E 67 389 10 
E 67 432 10 
E 68 96 2 
E 68 131 7 
E 68 154 8 
E 68 292 7 
E 68 341 10 
E 68 417 9 
E 68 478 5 
E 69 118 6 
E 69 185 2 
E 69 190 8 
E 69 233 3 
E 69 300 6 
E 69 303 3 
E 69 417 1 
E 69 447 5 
E 70 117 5 
E 70 138 5 
E 70 141 10 
E 70 161 4 
E 70 205 2 
E 70 221 1 
E 70 310 5 
E 70 331 8 
E 70 347 6 
E 70 417 2 
E 70 428 8 
E 70 455 2 
E 70 460 8 
E 71 86 3 
E 71 118 5 
E 71 203 6 
E 71 248 10 
E 71 250 2 
E 71 294 10 
E 71 325 4 
E 71 357 8 
E 71 416 4 
E 71 425 7 
E 72 89 4 
E 72 128 3 
E 72 140 2 
E 72 179 10 
E 72 254 9 
E 72 330 9 
E 72 470 7 
E 72 471 10 
E 72 492 7 
E 73 171 4 
E 73 306 8 
E 73 315 1 
E 73 369 5 
E 73 426 9 
E 74 124 7 
E 74 207 10 
E 74 270 8 
E 74 370 8 
E 74 388 2 
E 74 448 8 
E 74 470 10 
E 75 96 3 
E 75 153 10 
E 75 171 9 
E 75 308 3 
E 75 314 9 
E 75 396 10 
E 75 406 7 
E 75 461 3 
E 76 79 6 
E 76 106 6 
E 76 164 9 
E 76 262 10 
E 76 347 10 
E 76 379 5 
E 77 97 7 
E 77 167 9 
E 77 214 4 
E 77 224 10 
E 77 343 3 
E 77 347 6 
E 77 358 6 
E 77 365 6 
E 78 118 10 
E 78 170 3 
E 78 175 9 
E 78 176 1 
E 78 218 10 
E 78 363 9 
E 78 442 4 
E 79 143 8 
E 79 188 4 
E 79 267 6 
E 79 368 10 
E 79 410 5 
E 79 455 4 
E 79 487 8 
E 80 147 5 
E 80 204 4 
E 80 210 3 
E 80 466 6 
E 81 151 4 
E 81 184 5 
E 81 194 2 
E 81 195 2 
E 81 219 8 
E 81 299 1 
E 81 403 5 
E 81 434 10 
E 82 112 10 
E 82 216 7 
E 82 273 1 
E 82 337 6 
E 82 344 5 
E 82 371 7 
E 82 375 4 
E 82 419 2 
E 83 131 4 
E 83 143 1 
E 83 172 6 
E 83 175 4 
E 83 266 7 
E 83 275 7 
E 83 295 10 
E 83 320 6 
E 83 326 9 
E 83 400 7 
E 83 401 3 
E 83 447 4 
E 83 464 7 
E 84 109 6 
E 84 254 7 
E 84 255 3 
E 84 284 4 
E 84 322 9 
E 84 346 8 
E 84 364 1 
E 84 452 6 
E 85 89 8 
E 85 203 1 
E 85 217 10 
E 85 268 5 
E 85 309 3 
E 85 325 8 
E 85 413 1 
E 86 96 7 
E 86 125 8 
E 86 153 9 
E 86 267 2 
E 86 274 1 
E 86 384 4 
E 86 466 6 
E 87 111 8 
E 87 192 8 
E 87 331 9 
E 87 346 3 
E 87 455 3 
E 88 90 3 
E 88 114 4 
E 88 176 9 
E 88 178 2 
E 88 266 7 
E 88 278 1 
E 88 318 4 
E 88 351 7 
E 88 356 6 
E 88 393 10 
E 88 435 7 
E 88 450 7 
E 89 114 5 
E 89 120 4 
E 89 185 10 
E 89 212 8 
E 89 227 8 
E 89 259 7 
E 89 284 9 
E 89 324 1 
E 89 342 9 
E 89 382 4 
E 89 433 7 
E 89 452 3 
E 89 496 6 
E 90 141 8 
E 90 193 7 
E 90 265 7 
E 90 270 5 
E 90 288 10 
E 90 297 8 
E 90 340 2 
E 90 387 2 
E 90 390 2 
E 91 159 3 
E 91 181 6 
E 91 188 8 
E 91 234 4 
E 91 268 8 
E 91 320 7 
E 91 485 2 
E 91 487 7 
E 92 146 6 
E 92 175 8 
E 92 285 9 
E 92 347 1 
E 92 429 4 
E 92 461 2 
E 92 480 6 
E 92 493 1 
E 92 497 2 
E 93 170 2 
E 93 175 9 
E 93 212 8 
E 93 335 2 
E 93 375 10 
E 93 397 8 
E 93 401 7 
E 93 439 4 
E 93 499 5 
E 94 202 2 
E 94 222 9 
E 94 227 10 
E 94 314 1 
E 94 396 2 
E 94 419 4 
E 94 485 7 
E 94 499 3 
E 95 113 7 
E 95 136 4 
E 95 184 1 
E 95 229 8 
E 95 246 6 
E 95 261 2 
E 95 268 10 
E 95 308 7 
E 95 350 7 
E 95 355 10 
E 95 407 2 
E 95 408 9 
E 96 123 2 
E 96 318 5 
E 96 335 1 
E 96 341 7 
E 96 403 5 
E 96 406 7 
E 96 407 7 
E 96 449 3 
E 96 478 9 
E 97 268 1 
E 97 296 10 
E 97 365 7 
E 97 428 7 
E 97 460 6 
E 98 123 7 
E 98 138 8 
E 98 252 1 
E 98 359 3 
E 98 497 1 
E 99 131 10 
E 99 188 3 
E 99 189 8 
E 99 244 6 
E 99 292 7 
E 99 343 8 
E 99 363 7 
E 99 382 4 
E 100 140 10 
E 100 188 5 
E 100 190 9 
E 100 193 8 
E 100 212 5 
E 100 280 5 
E 100 395 4 
E 100 468 2 
E 101 162 3 
E 101 216 9 
E 101 355 3 
E 101 388 3 
E 101 476 4 
E 101 482 2 
E 101 493 5 
E 102 132 6 
E 102 160 5 
E 102 248 8 
E 102 312 8 
E 102 399 7 
E 102 409 8 
E 103 179 1 
E 103 308 6 
E 103 423 10 
E 103 429 2 
E 103 443 3 
E 104 275 10 
E 104 276 7 
E 104 304 7 
E 104 344 10 
E 104 357 6 
E 104 369 2 
E 104 381 8 
E 104 481 5 
E 105 137 3 
E 105 177 1 
E 105 218 1 
E 105 270 3 
E 105 366 7 
E 105 367 3 
E 105 421 2 
E 105 432 7 
E 105 471 7 
E 105 477 10 
E 105 481 5 
E 106 126 2 
E 106 213 2 
E 106 226 7 
E 106 231 9 
E 106 270 10 
E 106 279 5 
E 106 292 6 
E 106 320 2 
E 106 324 1 
E 106 442 3 
E 106 491 7 
E 107 113 7 
E 107 125 5 
E 107 133 7 
E 107 134 1 
E 107 143 8 
E 107 224 7 
E 107 245 9 
E 107 293 2 
E 107 299 2 
E 107 358 3 
E 107 368 7 
E 107 369 1 
E 107 484 3 
E 108 140 7 
E 108 172 7 
E 108 189 5 
E 108 277 1 
E 108 334 7 
E 108 383 5 
E 108 456 2 
E 109 122 7 
E 109 156 1 
E 109 185 10 
E 109 207 1 
E 109 228 4 
E 109 267 10 
E 109 281 10 
E 109 284 2 
E 109 374 7 
E 109 454 2 
E 109 463 7 
E 109 471 7 
E 110 129 3 
E 110 154 10 
E 110 201 10 
E 110 420 6 
E 110 456 8 
E 111 165 9 
E 111 216 10 
E 111 260 8 
E 111 297 4 
E 111 356 10 
E 111 380 3 
E 111 474 4 
E 112 127 3 
E 112 128 6 
E 112 265 10 
E 112 322 4 
E 112 351 1 
E 112 441 8 
E 113 279 8 
E 113 385 7 
E 113 420 2 
E 113 476 3 
E 113 498 7 
E 114 129 4 
E 114 217 7 
E 114 224 4 
E 114 419 10 
E 115 149 4 
E 115 208 1 
E 115 225 6 
E 115 226 8 
E 115 229 7 
E 115 259 7 
E 115 302 6 
E 115 406 7 
E 115 482 9 
E 116 136 6 
E 116 145 3 
E 116 181 5 
E 116 243 6 
E 116 267 10 
E 116 290 6 
E 116 337 1 
E 116 416 4 
E 116 435 3 
E 116 474 8 
E 116 483 6 
E 117 216 5 
E 117 225 7 
E 117 315 6 
E 117 344 8 
E 117 364 7 
E 117 415 6 
E 117 434 3 
E 118 151 1 
E 118 288 3 
E 118 290 4 
E 118 301 6 
E 118 314 6 
E 118 352 7 
E 118 377 1 
E 118 389 2 
E 118 390 9 
E 119 154 5 
E 119 246 4 
E 119 256 4 
E 119 261 5 
E 119 285 9 
E 119 376 2 
E 119 483 10 
E 120 163 8 
E 120 179 5 
E 120 186 2 
E 120 255 2 
E 120 265 7 
E 120 343 1 
E 120 352 5 
E 120 375 7 
E 120 398 6 
E 121 137 9 
E 121 218 10 
E 121 316 8 
E 121 395 3 
E 122 211 4 
E 122 321 3 
E 122 340 1 
E 122 360 9 
E 122 369 5 
E 122 396 4 
E 122 424 7 
E 123 137 4 
E 123 214 6 
E 123 241 1 
E 123 244 1 
E 123 354 9 
E 123 494 6 
E 124 191 6 
E 124 192 9 
E 124 251 3 
E 124 385 5 
E 124 414 2 
E 124 418 4 
E 124 477 8 
E 124 499 3 
E 125 145 10 
E 125 168 7 
E 125 219 7 
E 125 279 7 
E 125 319 5 
E 125 340 10 
E 125 366 10 
E 125 372 9 
E 125 493 7 
E 126 224 1 
E 126 280 4 
E 126 290 9 
E 126 336 3 
E 126 453 4 
E 126 455 5 
E 126 461 8 
E 126 465 1 
E 126 467 1 
E 126 498 2 
E 127 152 4 
E 127 228 10 
E 127 229 4 
E 127 254 2 
E 127 277 4 
E 127 382 6 
E 127 393 8 
E 127 442 7 
E 128 234 10 
E 128 284 2 
E 128 391 9 
E 129 208 7 
E 129 294 8 
E 129 441 5 
E 129 493 10 
E 130 135 7 
E 130 149 10 
E 130 198 2 
E 130 305 4 
E 130 400 10 
E 130 401 4 
E 130 432 7 
E 130 454 8 
E 130 473 1 
E 130 474 3 
E 131 136 6 
E 131 164 2 
E 131 173 6 
E 131 225 1 
E 131 311 8 
E 131 343 2 
E 131 346 5 
E 131 368 5 
E 131 392 4 
E 131 443 10 
E 131 474 4 
E 131 484 3 
E 131 493 1 
E 131 496 3 
E 131 498 1 
E 132 155 7 
E 132 180 4 
E 132 252 6 
E 132 358 9 
E 132 455 1 
E 132 494 9 
E 133 178 8 
E 133 204 9 
E 133 345 6 
E 133 435 8 
E 133 456 5 
E 133 476 6 
E 134 315 1 
E 134 355 9 
E 134 381 10 
E 135 398 2 
E 135 446 2 
E 135 451 1 
E 135 472 5 
E 136 214 9 
E 136 244 1 
E 136 275 3 
E 136 294 2 
E 136 396 10 
E 136 417 8 
E 136 424 1 
E 136 441 7 
E 136 495 8 
E 137 235 8 
E 137 261 7 
E 137 315 3 
E 137 440 2 
E 137 455 7 
E 137 460 2 
E 137 462 6 
E 138 297 3 
E 138 298 5 
E 138 383 3 
E 138 401 4 
E 138 410 8 
E 138 494 2 
E 139 194 2 
E 139 230 8 
E 139 329 8 
E 139 362 9 
E 140 169 8 
E 140 173 9 
E 140 270 9 
E 140 291 6 
E 140 334 5 
E 140 343 7 
E 141 170 1 
E 141 199 5 
E 141 317 7 
E 141 358 10 
E 142 147 1 
E 142 398 1 
E 142 480 4 
E 142 490 7 
E 143 176 8 
E 143 191 10 
E 143 239 5 
E 143 265 6 
E 143 269 8 
E 143 282 3 
E 143 400 1 
E 143 430 1 
E 143 475 1 
E 144 177 5 
E 144 183 4 
E 144 214 10 
E 144 288 4 
E 144 322 1 
E 144 348 10 
E 144 358 3 
E 144 361 1 
E 144 450 1 
E 144 470 3 
E 145 158 4 
E 145 162 7 
E 145 163 7 
E 145 237 10 
E 145 261 4 
E 145 378 3 
E 145 405 7 
E 145 466 4 
E 145 492 10 
E 146 189 6 
E 146 202 5 
E 146 222 9 
E 146 313 2 
E 146 320 5 
E 146 401 1 
E 146 493 7 
E 147 231 9 
E 147 254 1 
E 147 279 2 
E 147 362 9 
E 147 430 7 
E 147 495 5 
E 148 225 8 
E 148 278 2 
E 148 330 9 
E 148 470 8 
E 148 472 5 
E 149 172 5 
E 149 218 4 
E 149 242 7 
E 149 262 1 
E 149 310 1 
E 149 315 1 
E 149 336 5 
E 149 401 1 
E 149 416 9 
E 149 439 6 
E 150 310 6 
E 150 312 5 
E 150 327 3 
E 150 374 1 
E 150 397 5 
E 150 410 10 
E 150 478 8 
E 150 500 2 
E 151 182 2 
E 151 223 2 
E 151 280 3 
E 151 282 5 
E 151 309 9 
E 151 319 10 
E 151 340 7 
E 151 341 1 
E 151 428 4 
E 152 373 4 
E 152 388 8 
E 152 462 4 
E 152 477 2 
E 153 169 9 
E 153 184 8 
E 153 229 2 
E 153 311 9 
E 153 354 2 
E 153 417 9 
E 153 456 1 
E 153 466 3 
E 154 175 9 
E 154 264 6 
E 154 295 1 
E 154 302 7 
E 154 314 2 
E 154 329 4 
E 154 358 5 
E 154 380 1 
E 154 392 2 
E 155 166 1 
E 155 267 3 
E 155 329 6 
E 155 341 2 
E 155 439 5 
E 156 336 5 
E 156 369 9 
E 156 423 4 
E 157 176 3 
E 157 197 6 
E 157 202 3 
E 157 290 9 
E 157 311 10 
E 157 446 6 
E 157 470 9 
E 157 476 1 
E 158 271 5 
E 158 358 2 
E 158 392 2 
E 158 397 8 
E 159 305 5 
E 159 359 3 
E 159 367 4 
E 159 434 5 
E 159 469 8 
E 160 178 6 
E 160 216 1 
E 160 254 3 
E 160 300 10 
E 160 439 3 
E 160 449 7 
E 161 168 2 
E 161 175 3 
E 161 203 6 
E 161 276 4 
E 161 389 9 
E 161 398 2 
E 161 422 6 
E 161 466 9 
E 162 334 7 
E 162 349 9 
E 162 351 7 
E 162 360 7 
E 162 392 7 
E 162 415 9 
E 163 302 9 
E 163 315 5 
E 163 361 4 
E 163 398 7 
E 164 229 1 
E 164 317 2 
E 164 459 3 
E 164 498 3 
E 165 212 1 
E 165 216 4 
E 165 245 1 
E 165 265 5 
E 165 299 1 
E 165 310 9 
E 165 373 6 
E 165 401 3 
E 165 407 4 
E 166 231 6 
E 166 252 4 
E 166 267 4 
E 166 279 6 
E 166 392 6 
E 166 394 4 
E 166 415 9 
E 166 495 5 
E 167 230 4 
E 167 245 10 
E 167 251 6 
E 167 381 10 
E 167 386 5 
E 167 387 8 
E 167 443 8 
E 168 180 5 
E 168 332 4 
E 168 358 5 
E 168 364 10 
E 168 397 8 
E 168 476 10 
E 169 185 1 
E 169 189 10 
E 169 250 4 
E 169 304 7 
E 169 348 6 
E 169 375 5 
E 170 258 9 
E 170 261 10 
E 170 275 5 
E 170 330 2 
E 170 421 9 
E 170 442 9 
E 170 447 7 
E 171 238 8 
E 171 329 7 
E 171 424 10 
E 172 264 2 
E 172 276 7 
E 172 383 8 
E 173 192 10 
E 173 248 4 
E 173 276 9 
E 173 353 8 
E 173 370 5 
E 173 497 9 
E 174 181 9 
E 174 186 7 
E 174 188 8 
E 174 211 8 
E 174 214 6 
E 174 217 5 
E 174 248 8 
E 174 306 6 
E 174 414 6 
E 174 470 4 
E 175 190 3 
E 175 277 6 
E 175 373 3 
E 175 426 2 
E 175 427 8 
E 175 431 1 
E 175 463 9 
E 175 496 2 
E 175 499 6 
E 176 197 4 
E 176 207 5 
E 176 254 3 
E 176 263 9 
E 176 272 5 
E 176 339 4 
E 176 343 6 
E 176 481 3 
E 177 202 8 
E 177 209 9 
E 177 214 10 
E 177 267 5 
E 177 311 5 
E 177 335 4 
E 177 370 3 
E 177 438 2 
E 177 465 2 
E 178 219 9 
E 178 253 9 
E 178 307 8 
E 178 369 5 
E 178 382 6 
E 178 412 4 
E 178 427 9 
E 179 190 4 
E 179 214 4 
E 179 227 1 
E 179 238 9 
E 179 278 1 
E 179 284 3 
E 179 304 3 
E 179 348 8 
E 179 349 7 
E 179 365 1 
E 179 400 5 
E 179 410 6 
E 180 235 2 
E 180 273 7 
E 180 298 1 
E 180 413 8 
E 180 447 2 
E 180 468 7 
E 181 280 5 
E 181 328 3 
E 181 351 2 
E 181 376 9 
E 181 390 6 
E 182 258 4 
E 182 273 2 
E 182 325 9 
E 182 360 8 
E 182 393 6 
E 182 497 6 
E 183 201 9 
E 183 212 6 
E 183 252 1 
E 183 305 7 
E 183 436 3 
E 183 460 1 
E 184 234 9 
E 184 250 1 
E 184 305 2 
E 184 329 6 
E 184 330 1 
E 184 356 2 
E 185 231 6 
E 185 290 5 
E 185 300 7 
E 185 481 4 
E 186 196 9 
E 187 198 2 
E 187 222 8 
E 187 225 7 
E 187 234 8 
E 187 251 1 
E 187 280 4 
E 187 295 10 
E 187 473 3 
E 188 291 6 
E 188 328 9 
E 188 470 10 
E 189 195 4 
E 189 366 10 
E 189 387 1 
E 189 410 7 
E 189 426 7 
E 189 494 3 
E 189 498 10 
E 190 224 5 
E 190 313 5 
E 190 381 2 
E 190 418 4 
E 190 464 7 
E 191 235 6 
E 191 260 4 
E 191 309 8 
E 191 344 5 
E 191 384 4 
E 191 429 3 
E 191 462 4 
E 192 214 1 
E 192 294 9 
E 192 338 5 
E 192 372 1 
E 193 196 1 
E 193 274 9 
E 193 290 6 
E 193 323 9 
E 193 375 8 
E 193 385 9 
E 193 390 10 
E 193 392 4 
E 193 446 4 
E 194 209 9 
E 194 279 8 
E 194 288 10 
E 194 291 7 
E 194 351 3 
E 194 392 10 
E 194 467 3 
E 194 473 1 
E 195 298 6 
E 195 365 8 
E 195 412 6 
E 195 425 5 
E 196 309 8 
E 196 346 10 
E 196 372 6 
E 196 497 6 
E 197 213 8 
E 197 224 5 
E 197 317 10 
E 197 365 3 
E 197 448 10 
E 198 246 1 
E 198 329 8 
E 198 333 2 
E 198 337 9 
E 198 341 10 
E 198 368 2 
E 198 378 4 
E 198 403 8 
E 198 463 5 
E 198 472 3 
E 199 202 5 
E 199 235 4 
E 199 241 7 
E 199 248 4 
E 199 273 8 
E 199 328 2 
E 199 344 3 
E 199 485 1 
E 200 216 2 
E 200 233 4 
E 200 240 7 
E 200 246 8 
E 200 256 3 
E 200 273 7 
E 200 277 8 
E 200 329 3 
E 200 340 10 
E 200 421 1 
E 200 496 2 
E 201 226 10 
E 201 252 9 
E 201 262 4 
E 201 355 4 
E 201 380 6 
E 201 389 1 
E 201 449 2 
E 201 466 3 
E 201 476 3 
E 202 213 4 
E 202 311 2 
E 202 412 2 
E 202 473 8 
E 203 215 9 
E 203 234 10 
E 203 247 10 
E 203 272 8 
E 203 319 3 
E 203 328 9 
E 203 334 8 
E 203 372 2 
E 203 397 10 
E 203 428 7 
E 203 458 5 
E 204 259 5 
E 204 264 3 
E 204 278 4 
E 204 324 8 
E 204 400 9 
E 204 456 10 
E 204 485 10 
E 204 495 6 
E 205 220 1 
E 205 270 7 
E 205 299 9 
E 205 405 9 
E 205 445 6 
E 205 455 3 
E 205 458 6 
E 206 271 2 
E 206 348 6 
E 206 357 4 
E 206 444 6 
E 207 220 5 
E 207 251 8 
E 207 326 7 
E 207 341 4 
E 207 458 4 
E 208 271 5 
E 208 384 10 
E 208 388 8 
E 208 414 2 
E 208 422 7 
E 208 478 5 
E 209 232 2 
E 209 497 1 
E 210 322 8 
E 210 375 8 
E 210 433 1 
E 211 219 6 
E 211 246 1 
E 211 299 5 
E 211 305 1 
E 211 385 3 
E 211 414 10 
E 212 236 6 
E 212 245 1 
E 212 299 6 
E 212 354 3 
E 212 369 8 
E 212 386 1 
E 212 464 4 
E 212 471 7 
E 212 490 10 
E 212 492 10 
E 212 496 7 
E 212 500 8 
E 213 298 3 
E 213 332 4 
E 213 384 5 
E 213 393 3 
E 213 407 4 
E 214 235 9 
E 214 254 4 
E 214 270 4 
E 214 277 5 
E 214 280 7 
E 214 301 9 
E 214 392 3 
E 214 486 8 
E 215 227 7 
E 215 340 3 
E 215 374 10 
E 215 391 3 
E 215 416 4 
E 216 351 3 
E 216 353 1 
E 216 360 10 
E 216 377 7 
E 216 397 10 
E 216 473 7 
E 216 480 7 
E 217 259 6 
E 217 341 6 
E 217 413 2 
E 217 456 5 
E 218 280 4 
E 218 323 3 
E 218 442 10 
E 218 466 2 
E 219 223 8 
E 219 242 3 
E 219 355 2 
E 219 373 8 
E 219 403 1 
E 219 476 2 
E 220 242 1 
E 220 253 4 
E 220 335 5 
E 220 428 1 
E 220 449 10 
E 221 251 8 
E 221 252 10 
E 221 359 2 
E 221 382 7 
E 222 231 7 
E 222 275 5 
E 222 401 10 
E 222 464 9 
E 223 335 2 
E 223 404 10 
E 223 413 5 
E 223 423 4 
E 223 428 3 
E 223 460 2 
E 223 485 10 
E 224 249 3 
E 224 261 5 
E 224 268 8 
E 224 314 1 
E 224 329 5 
E 224 368 10 
E 224 378 1 
E 224 412 4 
E 224 420 7 
E 224 430 10 
E 224 448 8 
E 224 496 4 
E 225 243 7 
E 225 322 5 
E 225 357 3 
E 226 289 7 
E 226 292 2 
E 226 324 4 
E 226 369 8 
E 226 403 7 
E 226 453 3 
E 226 476 3 
E 227 308 4 
E 227 337 8 
E 227 375 3 
E 227 402 4 
E 227 464 5 
E 227 497 4 
E 228 264 3 
E 228 268 10 
E 228 283 2 
E 228 485 5 
E 229 275 10 
E 229 284 9 
E 229 340 2 
E 229 351 6 
E 229 388 6 
E 229 424 3 
E 229 457 1 
E 230 273 9 
E 230 339 5 
E 231 242 2 
E 231 252 1 
E 231 313 2 
E 231 370 5 
E 232 422 2 
E 232 447 2 
E 233 282 2 
E 233 376 8 
E 233 417 3 
E 233 425 4 
E 234 274 8 
E 234 305 4 
E 234 316 8 
E 234 325 3 
E 234 409 9 
E 234 412 5 
E 235 274 10 
E 235 300 5 
E 235 425 9 
E 236 263 3 
E 236 267 8 
E 236 277 10 
E 236 296 4 
E 236 356 2 
E 236 365 3 
E 236 390 2 
E 236 402 4 
E 236 421 6 
E 236 428 5 
E 236 473 5 
E 237 330 4 
E 237 354 10 
E 237 365 5 
E 237 371 8 
E 237 453 6 
E 237 472 5 
E 238 279 6 
E 238 314 4 
E 238 350 10 
E 238 353 10 
E 238 373 7 
E 238 457 2 
E 238 494 9 
E 239 315 5 
E 239 318 2 
E 239 426 7 
E 239 429 1 
E 239 431 7 
E 239 441 5 
E 239 458 4 
E 239 468 6 
E 239 479 10 
E 239 482 8 
E 239 483 3 
E 240 262 2 
E 240 282 8 
E 240 497 9 
E 241 373 2 
E 241 383 1 
E 242 286 9 
E 242 458 7 
E 242 479 2 
E 243 247 1 
E 243 262 3 
E 243 361 2 
E 243 364 2 
E 243 402 8 
E 244 269 1 
E 244 282 3 
E 244 343 2 
E 244 391 3 
E 244 397 1 
E 244 422 3 
E 244 458 6 
E 245 290 6 
E 245 340 7 
E 245 363 1 
E 245 431 1 
E 245 449 1 
E 245 496 6 
E 246 278 2 
E 246 336 6 
E 246 339 3 
E 246 396 5 
E 246 452 10 
E 247 261 5 
E 247 291 1 
E 247 303 6 
E 247 316 7 
E 247 345 6 
E 247 383 4 
E 247 394 9 
E 247 425 10 
E 247 470 2 
E 247 498 6 
E 248 251 6 
E 248 302 10 
E 248 328 6 
E 249 314 9 
E 249 438 2 
E 250 290 10 
E 250 302 1 
E 250 304 2 
E 250 408 8 
E 250 412 9 
E 250 485 10 
E 251 265 4 
E 251 406 7 
E 251 431 2 
E 251 459 10 
E 251 461 9 
E 251 480 4 
E 251 491 9 
E 252 318 3 
E 252 432 3 
E 252 465 7 
E 252 487 1 
E 253 328 10 
E 253 331 6 
E 253 338 1 
E 253 372 10 
E 253 442 10 
E 253 449 8 
E 253 481 6 
E 254 321 6 
E 254 324 3 
E 254 329 3 
E 254 467 2 
E 254 468 1 
E 255 274 6 
E 255 290 2 
E 255 294 7 
E 255 353 2 
E 255 413 4 
E 255 419 1 
E 256 353 1 
E 256 384 1 
E 256 452 6 
E 257 270 4 
E 257 307 4 
E 257 335 5 
E 257 415 9 
E 257 461 10 
E 257 470 1 
E 258 266 5 
E 258 413 8 
E 258 436 7 
E 258 489 6 
E 259 366 3 
E 259 431 8 
E 260 322 5 
E 260 328 5 
E 261 281 7 
E 261 288 10 
E 261 302 3 
E 261 340 3 
E 261 427 10 
E 261 431 4 
E 261 475 1 
E 262 269 8 
E 262 278 3 
E 262 354 7 
E 262 470 6 
E 262 473 9 
E 262 481 10 
E 262 485 10 
E 263 292 2 
E 263 348 2 
E 263 426 7 
E 263 433 9 
E 263 437 3 
E 263 452 1 
E 264 325 3 
E 264 330 5 
E 264 432 3 
E 264 440 2 
E 264 465 10 
E 265 298 10 
E 265 316 7 
E 265 317 4 
E 265 353 7 
E 265 422 7 
E 265 429 10 
E 265 447 6 
E 265 487 1 
E 266 309 5 
E 266 425 2 
E 267 386 1 
E 267 473 9 
E 267 478 2 
E 267 480 10 
E 268 345 2 
E 268 353 7 
E 268 446 6 
E 268 450 2 
E 268 475 9 
E 268 489 8 
E 269 320 4 
E 269 382 8 
E 269 405 8 
E 269 407 6 
E 270 285 1 
E 270 307 5 
E 270 478 10 
E 271 277 10 
E 271 293 2 
E 271 331 8 
E 271 333 5 
E 271 375 2 
E 271 408 1 
E 272 339 10 
E 272 356 4 
E 272 381 7 
E 272 390 2 
E 273 277 9 
E 273 499 5 
E 274 308 9 
E 274 379 1 
E 274 429 3 
E 275 326 5 
E 275 433 6 
E 276 317 4 
E 276 394 8 
E 276 444 3 
E 276 475 7 
E 276 484 10 
E 277 374 3 
E 277 381 5 
E 277 458 10 
E 278 331 7 
E 278 374 3 
E 278 392 4 
E 278 419 4 
E 278 436 2 
E 279 377 7 
E 279 414 5 
E 279 453 1 
E 280 289 6 
E 280 400 6 
E 280 469 10 
E 280 475 6 
E 280 485 10 
E 281 341 10 
E 281 344 6 
E 281 362 1 
E 281 396 8 
E 281 421 1 
E 282 301 2 
E 282 342 5 
E 282 365 4 
E 282 393 5 
E 282 394 2 
E 283 304 3 
E 283 352 5 
E 283 353 10 
E 283 360 9 
E 283 393 2 
E 283 407 10 
E 283 415 6 
E 283 419 10 
E 283 428 4 
E 283 443 4 
E 283 467 5 
E 284 296 1 
E 284 329 7 
E 284 352 2 
E 284 384 7 
E 284 386 2 
E 285 295 3 
E 285 304 1 
E 285 309 9 
E 285 331 7 
E 285 351 10 
E 285 370 7 
E 285 384 3 
E 285 403 4 
E 285 418 9 
E 285 473 8 
E 286 310 2 
E 286 313 5 
E 286 348 5 
E 286 364 1 
E 286 415 10 
E 287 307 6 
E 287 310 6 
E 287 318 6 
E 287 387 10 
E 287 393 1 
E 287 496 3 
E 288 390 9 
E 288 420 7 
E 289 290 4 
E 289 300 3 
E 289 351 6 
E 289 402 5 
E 289 415 9 
E 289 449 4 
E 289 476 1 
E 289 489 7 
E 290 303 6 
E 290 306 5 
E 290 316 10 
E 290 358 5 
E 290 393 2 
E 291 299 2 
E 291 346 6 
E 291 390 8 
E 291 406 2 
E 291 413 3 
E 291 446 3 
E 292 336 5 
E 292 353 10 
E 292 366 3 
E 292 370 6 
E 292 387 3 
E 292 445 5 
E 292 496 4 
E 293 294 3 
E 293 362 7 
E 293 435 8 
E 293 453 8 
E 293 494 5 
E 293 497 7 
E 294 379 8 
E 294 426 1 
E 294 479 1 
E 295 310 5 
E 295 314 8 
E 295 439 3 
E 295 453 4 
E 295 498 3 
E 297 301 3 
E 297 340 4 
E 297 362 10 
E 297 369 10 
E 297 487 7 
E 298 300 2 
E 298 304 6 
E 299 301 10 
E 299 327 3 
E 299 337 6 
E 299 452 1 
E 299 484 3 
E 299 500 6 
E 300 303 10 
E 300 365 9 
E 300 369 8 
E 300 428 10 
E 300 430 7 
E 300 441 5 
E 300 482 10 
E 300 496 5 
E 301 311 6 
E 301 371 1 
E 301 375 3 
E 301 471 8 
E 301 472 7 
E 302 314 4 
E 302 352 8 
E 302 395 10 
E 302 441 4 
E 303 350 6 
E 303 362 6 
E 303 372 10 
E 303 378 8 
E 303 410 9 
E 303 441 7 
E 303 498 7 
E 304 306 6 
E 304 368 1 
E 304 389 5 
E 304 405 7 
E 304 419 7 
E 304 475 7 
E 304 497 2 
E 305 307 4 
E 305 311 6 
E 305 463 6 
E 305 470 9 
E 306 353 1 
E 306 400 6 
E 306 497 6 
E 307 380 1 
E 308 351 1 
E 308 388 9 
E 308 426 3 
E 309 359 1 
E 309 403 1 
E 309 470 4 
E 310 379 5 
E 311 316 7 
E 311 480 7 
E 312 353 4 
E 312 395 4 
E 312 455 1 
E 312 473 5 
E 313 350 10 
E 313 422 3 
E 313 430 2 
E 314 335 8 
E 314 346 9 
E 314 369 6 
E 314 388 5 
E 314 390 4 
E 314 413 2 
E 314 435 9 
E 315 333 5 
E 315 414 5 
E 315 419 5 
E 315 500 5 
E 316 396 4 
E 316 400 7 
E 317 360 8 
E 317 362 4 
E 317 368 8 
E 317 383 9 
E 317 458 1 
E 317 479 8 
E 318 341 4 
E 318 365 7 
E 318 419 5 
E 318 442 8 
E 318 453 7 
E 318 477 1 
E 318 486 4 
E 319 410 10 
E 319 438 2 
E 319 474 5 
E 320 340 9 
E 320 352 4 
E 320 356 1 
E 320 424 6 
E 320 449 10 
E 320 486 5 
E 320 498 10 
E 321 341 8 
E 321 423 7 
E 321 459 9 
E 321 472 5 
E 322 342 7 
E 323 466 2 
E 324 350 3 
E 324 417 9 
E 324 458 9 
E 324 472 4 
E 325 378 7 
E 325 408 1 
E 325 486 6 
E 326 338 7 
E 326 371 9 
E 326 375 8 
E 326 384 3 
E 326 440 3 
E 327 353 4 
E 327 365 10 
E 327 466 5 
E 328 395 6 
E 328 425 5 
E 328 450 4 
E 328 490 7 
E 328 495 7 
E 329 444 8 
E 329 472 1 
E 329 481 1 
E 330 363 2 
E 330 396 9 
E 331 334 1 
E 331 345 8 
E 331 374 8 
E 332 376 3 
E 332 427 8 
E 332 430 5 
E 332 450 4 
E 333 369 7 
E 333 454 5 
E 333 473 1 
E 334 363 7 
E 334 368 8 
E 334 376 2 
E 334 433 4 
E 334 485 1 
E 335 371 1 
E 335 450 1 
E 336 346 3 
E 337 363 3 
E 337 494 6 
E 338 376 7 
E 338 384 10 
E 338 412 10 
E 338 446 8 
E 338 470 7 
E 339 423 1 
E 339 425 3 
E 339 472 4 
E 339 488 5 
E 341 380 4 
E 341 499 9 
E 342 374 5 
E 342 459 5 
E 344 359 6 
E 344 364 2 
E 344 388 6 
E 344 411 5 
E 344 416 3 
E 344 471 2 
E 345 438 1 
E 345 461 1 
E 346 450 7 
E 347 359 1 
E 348 355 3 
E 348 362 9 
E 348 375 9 
E 348 395 6 
E 348 418 4 
E 349 359 1 
E 349 407 8 
E 349 411 1 
E 349 445 2 
E 350 360 6 
E 350 372 2 
E 350 475 6 
E 350 487 4 
E 352 354 2 
E 352 367 1 
E 352 473 6 
E 353 391 3 
E 353 392 4 
E 354 389 2 
E 354 425 9 
E 355 445 10 
E 355 452 2 
E 355 463 2 
E 355 487 9 
E 356 370 4 
E 357 480 6 
E 357 487 2 
E 358 387 9 
E 358 390 5 
E 358 392 8 
E 358 424 1 
E 359 420 8 
E 359 473 8 
E 360 367 2 
E 361 486 5 
E 362 374 3 
E 362 384 8 
E 362 396 3 
E 363 481 6 
E 364 490 5 
E 365 415 6 
E 366 376 1 
E 367 402 8 
E 367 484 4 
E 367 495 3 
E 368 478 7 
E 369 407 10 
E 369 451 10 
E 370 434 5 
E 370 439 8 
E 370 455 9 
E 371 379 4 
E 371 386 10 
E 372 495 8 
E 373 462 4 
E 373 494 2 
E 374 449 5 
E 374 489 3 
E 375 458 7 
E 375 476 4 
E 375 488 7 
E 376 430 1 
E 376 436 2 
E 376 486 4 
E 377 439 9 
E 379 437 8 
E 379 447 9 
E 379 499 4 
E 380 393 4 
E 380 429 3 
E 380 448 5 
E 380 460 3 
E 381 386 10 
E 381 416 6 
E 381 424 10 
E 381 433 2 
E 381 457 4 
E 381 470 9 
E 382 389 1 
E 382 424 3 
E 382 443 3 
E 383 418 4 
E 383 457 8 
E 384 429 4 
E 384 440 9 
E 384 441 7 
E 384 451 6 
E 384 453 7 
E 385 452 4 
E 385 493 9 
E 386 390 4 
E 386 397 1 
E 387 395 3 
E 387 446 2 
E 388 423 4 
E 388 461 4 
E 388 489 10 
E 389 403 9 
E 389 472 6 
E 389 474 4 
E 390 487 3 
E 391 461 10 
E 392 399 1 
E 392 482 1 
E 393 406 4 
E 393 424 4 
E 393 450 2 
E 394 408 9 
E 394 412 1 
E 394 459 8 
E 395 438 1 
E 395 481 6 
E 396 435 7 
E 396 476 2 
E 398 473 1 
E 399 463 10 
E 399 472 1 
E 400 457 1 
E 400 496 1 
E 401 492 10 
E 402 461 3 
E 402 492 7 
E 403 408 9 
E 403 411 5 
E 403 468 3 
E 404 458 7 
E 404 470 6 
E 404 477 8 
E 405 432 3 
E 406 458 4 
E 407 489 3 
E 408 419 4 
E 408 450 8 
E 411 462 9 
E 412 419 2 
E 412 473 4 
E 412 500 3 
E 413 436 5 
E 413 458 1 
E 413 464 5 
E 414 452 6 
E 414 453 1 
E 414 489 3 
E 415 417 3 
E 416 432 8 
E 419 434 3 
E 419 467 8 
E 420 422 4 
E 420 424 3 
E 420 441 8 
E 420 442 7 
E 420 456 9 
E 420 472 10 
E 421 430 1 
E 421 462 8 
E 422 473 5 
E 422 485 10 
E 425 491 3 
E 427 428 9 
E 427 440 10 
E 427 448 9 
E 427 454 8 
E 427 469 7 
E 427 479 6 
E 428 438 1 
E 428 455 4 
E 429 440 9 
E 429 467 7 
E 430 453 2 
E 430 455 2 
E 430 479 5 
E 432 449 6 
E 433 461 6 
E 434 489 6 
E 437 500 7 
E 438 453 10 
E 438 463 7 
E 440 470 3 
E 440 472 8 
E 443 453 3 
E 444 454 2 
E 446 489 10 
E 449 499 8 
E 450 470 5 
E 450 486 2 
E 451 476 5 
E 452 461 2 
E 453 464 6 
E 455 457 5 
E 455 460 9 
E 456 482 4 
E 457 460 7 
E 458 478 2 
E 458 488 1 
E 459 496 6 
E 460 498 6 
E 462 482 2 
E 462 498 10 
E 463 468 6 
E 464 497 2 
E 466 486 2 
E 466 490 4 
E 467 483 3 
E 470 482 9 
E 471 476 8 
E 475 484 1 
E 475 492 7 
E 476 484 10 
E 480 484 3 
E 480 488 5 
E 480 496 1 
E 483 487 9 
E 483 488 4 
E 487 496 6 
E 490 493 4 
END 

SECTION ProfitableVertices 
ProfitableVertices 125 
PV 1 93
PV 10 41
PV 12 80
PV 16 63
PV 18 22
PV 24 93
PV 25 74
PV 31 70
PV 33 74
PV 43 81
PV 44 97
PV 45 77
PV 48 10
PV 51 85
PV 55 29
PV 61 27
PV 62 41
PV 67 65
PV 70 73
PV 76 97
PV 79 32
PV 83 94
PV 84 53
PV 88 43
PV 94 47
PV 96 66
PV 97 88
PV 98 43
PV 110 74
PV 113 94
PV 120 84
PV 124 78
PV 131 77
PV 137 51
PV 138 33
PV 145 72
PV 146 33
PV 150 47
PV 153 86
PV 154 4
PV 156 50
PV 158 61
PV 160 97
PV 162 6
PV 169 15
PV 171 8
PV 173 4
PV 180 24
PV 188 4
PV 189 97
PV 192 75
PV 194 66
PV 200 63
PV 202 16
PV 204 28
PV 213 58
PV 214 34
PV 216 79
PV 222 56
PV 223 19
PV 230 29
PV 241 91
PV 250 50
PV 251 68
PV 254 34
PV 258 84
PV 262 26
PV 264 70
PV 266 68
PV 269 8
PV 275 98
PV 276 1
PV 278 34
PV 286 74
PV 288 88
PV 289 24
PV 290 59
PV 291 33
PV 296 55
PV 300 34
PV 302 84
PV 310 3
PV 313 85
PV 315 26
PV 317 66
PV 319 62
PV 320 3
PV 321 97
PV 327 71
PV 331 41
PV 335 66
PV 343 90
PV 344 62
PV 345 59
PV 348 69
PV 353 92
PV 355 33
PV 357 63
PV 368 76
PV 371 54
PV 372 77
PV 377 31
PV 381 86
PV 384 45
PV 388 19
PV 392 11
PV 394 79
PV 406 23
PV 407 39
PV 412 55
PV 415 3
PV 416 57
PV 431 11
PV 433 43
PV 444 4
PV 453 16
PV 455 71
PV 467 75
PV 483 39
PV 485 9
PV 488 12
PV 491 23
PV 493 74
PV 494 18
PV 499 65
END 

EOF 
